pyomo/data/cute/robot.ampl.col
TH[1]
TH[2]
TH[3]
TH[4]
TH[5]
TH[6]
TH[7]
THI[1]
THI[2]
THI[3]
THI[4]
THI[5]
THI[6]
THI[7]
